
Gurobi 8.1.1 (win64, Python) logging started 07/20/20 19:43:34


Gurobi 8.1.1 (win64, Python) logging started 07/20/20 19:47:10

Academic license - for non-commercial use only
Optimize a model with 2 rows, 4 columns and 4 nonzeros
Coefficient statistics:
  Matrix range     [5e+00, 7e+00]
  Objective range  [3e+03, 4e+03]
  Bounds range     [0e+00, 0e+00]
  RHS range        [5e+00, 1e+01]
Presolve removed 0 rows and 2 columns
Presolve time: 0.34s
Presolved: 2 rows, 2 columns, 4 nonzeros

Iteration    Objective       Primal Inf.    Dual Inf.      Time
       0    0.0000000e+00   1.875000e+00   0.000000e+00      0s
       1    6.0000000e+03   0.000000e+00   0.000000e+00      0s

Solved in 1 iterations and 0.38 seconds
Optimal objective  6.000000000e+03
Optimize a model with 4 rows, 4 columns and 8 nonzeros
Coefficient statistics:
  Matrix range     [5e+00, 7e+00]
  Objective range  [3e+03, 4e+03]
  Bounds range     [0e+00, 0e+00]
  RHS range        [5e+00, 1e+01]
Iteration    Objective       Primal Inf.    Dual Inf.      Time
       0    6.0000000e+03   0.000000e+00   0.000000e+00      0s

Solved in 0 iterations and 0.01 seconds
Optimal objective  6.000000000e+03
Optimize a model with 6 rows, 4 columns and 12 nonzeros
Coefficient statistics:
  Matrix range     [5e+00, 7e+00]
  Objective range  [3e+03, 4e+03]
  Bounds range     [0e+00, 0e+00]
  RHS range        [5e+00, 1e+01]
Iteration    Objective       Primal Inf.    Dual Inf.      Time
       0    6.0000000e+03   0.000000e+00   0.000000e+00      0s

Solved in 0 iterations and 0.01 seconds
Optimal objective  6.000000000e+03
Optimize a model with 2 rows, 2 columns and 4 nonzeros
Coefficient statistics:
  Matrix range     [5e+00, 7e+00]
  Objective range  [3e+03, 4e+03]
  Bounds range     [0e+00, 0e+00]
  RHS range        [5e+00, 1e+01]
Presolve time: 0.01s
Presolved: 2 rows, 2 columns, 4 nonzeros

Iteration    Objective       Primal Inf.    Dual Inf.      Time
       0    0.0000000e+00   1.875000e+00   0.000000e+00      0s
       1    6.0000000e+03   0.000000e+00   0.000000e+00      0s

Solved in 1 iterations and 0.02 seconds
Optimal objective  6.000000000e+03

Gurobi 8.1.1 (win64, Python) logging started 07/20/20 21:33:46

Academic license - for non-commercial use only
Optimize a model with 20 rows, 27 columns and 54 nonzeros
Variable types: 18 continuous, 9 integer (9 binary)
Coefficient statistics:
  Matrix range     [1e+00, 1e+00]
  Objective range  [5e-01, 4e+00]
  Bounds range     [1e+00, 1e+00]
  RHS range        [1e+00, 1e+00]
Presolve time: 0.09s
Presolved: 20 rows, 27 columns, 54 nonzeros
Variable types: 18 continuous, 9 integer (9 binary)

Root relaxation: objective 4.723713e+00, 15 iterations, 0.00 seconds

    Nodes    |    Current Node    |     Objective Bounds      |     Work
 Expl Unexpl |  Obj  Depth IntInf | Incumbent    BestBd   Gap | It/Node Time

*    0     0               0       4.7237129    4.72371  0.00%     -    0s

Explored 0 nodes (15 simplex iterations) in 0.27 seconds
Thread count was 4 (of 4 available processors)

Solution count 1: 4.72371 

Optimal solution found (tolerance 1.00e-04)
Best objective 4.723712908962e+00, best bound 4.723712908962e+00, gap 0.0000%
